c numero: 17
c nombre: n-30-d-0.1
c densidad: 0.1
p edges 30 46
e 1 4
e 1 7
e 1 13
e 1 18
e 1 29
e 2 7
e 2 8
e 2 9
e 2 10
e 2 25
e 3 10
e 3 13
e 3 16
e 3 17
e 4 14
e 5 26
e 6 13
e 6 16
e 6 30
e 7 8
e 8 17
e 8 25
e 8 29
e 10 22
e 10 23
e 11 18
e 11 20
e 11 23
e 12 15
e 12 20
e 12 21
e 12 23
e 12 26
e 13 18
e 15 21
e 15 23
e 15 24
e 15 29
e 16 17
e 17 26
e 19 22
e 20 27
e 22 25
e 22 27
e 24 27
e 25 28
